/*Objective Function*/

Max : 14000 Y1 + 15000 Y2;

/*Constraints*/

14000 Y1 +  3500 Y2 - 150 X1 - 0.2 X2 <= 0;
14000 Y1 + 21000 Y2 - 400 X1 - 0.7 X2 <= 0;
42000 Y1 + 10500 Y2 - 320 X1 - 1.2 X2 <= 0;
28000 Y1 + 42000 Y2 - 520 X1 -   2 X2 <= 0;
19000 Y1 + 25000 Y2 - 350 X1 - 1.2 X2 <= 0;
14000 Y1 + 15000 Y2 - 320 X1 - 0.7 X2 <= 0;

320 X1 + 0.7 X2 = 1;